40
3 2 5
4 1 2
5 2 6
5 3 3
5 4 6
6 0 3
6 2 6
6 4 2
7 0 6
7 2 4
8 3 1
8 4 2
8 6 3
9 0 8
9 2 10
9 4 7
9 6 8
10 1 6
10 2 8
10 3 6
10 4 9
10 7 9
10 8 1
10 9 1
11 1 4
11 3 9
11 4 5
11 6 6
11 9 6
11 10 10
12 1 2
12 3 10
12 6 10
12 7 5
12 9 8
12 11 7
13 3 9
13 5 6
13 6 6
13 7 7
13 8 10
13 10 8
13 12 4
14 4 8
14 5 5
14 6 1
14 9 1
14 12 6
15 1 9
15 3 1
15 4 4
15 5 9
15 7 6
15 8 1
15 10 4
15 11 8
15 13 7
15 14 10
16 1 7
16 3 7
16 9 8
16 11 5
16 12 9
16 15 9
17 3 1
17 4 4
17 5 1
17 6 1
17 7 8
17 11 2
17 14 4
18 1 10
18 4 4
18 5 9
18 12 6
18 17 1
19 1 7
19 4 9
19 5 8
19 6 7
19 7 10
19 9 6
19 11 1
19 13 1
19 14 2
19 16 5
19 17 5
19 18 4
20 3 1
20 5 2
20 8 1
20 10 2
20 11 6
20 12 8
20 13 2
20 14 6
20 16 3
21 0 10
21 3 8
21 4 1
21 5 2
21 6 4
21 9 7
21 13 1
21 14 3
21 15 10
21 16 8
21 17 3
22 2 8
22 3 8
22 4 10
22 7 10
22 8 2
22 12 7
22 13 6
22 16 7
22 21 4
23 0 3
23 1 4
23 2 6
23 6 6
23 7 7
23 10 7
23 11 1
23 13 8
23 14 8
23 18 10
23 21 10
24 2 7
24 3 9
24 6 7
24 7 1
24 8 5
24 9 2
24 11 3
24 12 10
24 16 5
24 18 8
24 20 10
25 0 5
25 4 10
25 5 6
25 6 3
25 9 5
25 11 6
25 13 10
25 14 1
25 15 4
25 21 6
25 23 7
25 24 2
26 0 4
26 1 8
26 3 5
26 4 8
26 5 1
26 6 9
26 8 7
26 9 1
26 11 10
26 14 3
26 16 10
26 17 3
26 18 10
26 19 10
26 20 1
26 22 1
26 23 1
26 24 4
26 25 2
27 2 6
27 3 7
27 10 6
27 12 1
27 13 1
27 14 8
27 15 8
27 16 10
27 18 7
27 20 2
27 22 5
27 23 9
27 26 5
28 0 6
28 3 8
28 5 5
28 7 9
28 9 4
28 10 4
28 15 10
28 16 9
28 18 1
28 19 1
28 20 10
28 22 5
28 25 8
28 27 10
29 1 6
29 4 8
29 6 1
29 7 3
29 8 2
29 9 9
29 10 8
29 11 1
29 13 1
29 16 4
29 18 5
29 19 8
29 21 5
29 22 4
29 23 7
29 25 2
29 28 9
30 1 2
30 6 6
30 7 10
30 8 9
30 9 6
30 10 8
30 11 5
30 12 1
30 13 4
30 14 2
30 15 8
30 17 6
30 19 7
30 20 8
30 21 2
30 22 6
30 24 10
30 27 3
30 28 7
30 29 5
31 0 5
31 1 8
31 2 7
31 3 1
31 4 9
31 5 4
31 6 4
31 8 4
31 9 7
31 10 3
31 15 1
31 16 9
31 17 3
31 19 5
31 20 4
31 22 8
31 23 7
31 28 3
32 0 10
32 2 6
32 5 3
32 7 5
32 13 9
32 14 9
32 18 6
32 20 5
32 21 7
32 22 6
32 27 4
32 29 8
33 0 8
33 1 2
33 2 5
33 3 7
33 4 10
33 6 6
33 7 3
33 8 3
33 9 7
33 13 7
33 16 2
33 17 1
33 20 9
33 23 10
33 24 10
33 27 4
33 29 5
33 30 7
33 31 9
33 32 2
34 2 8
34 3 8
34 4 10
34 7 1
34 8 1
34 10 10
34 12 8
34 13 2
34 14 5
34 16 2
34 19 3
34 21 10
34 22 1
34 24 2
34 25 5
34 28 9
34 29 4
34 30 7
34 31 9
35 2 4
35 7 2
35 9 5
35 10 1
35 11 1
35 14 10
35 15 7
35 17 10
35 19 1
35 20 3
35 24 4
35 25 6
35 30 3
36 0 7
36 3 5
36 4 9
36 5 3
36 6 2
36 9 10
36 12 8
36 14 1
36 16 10
36 17 9
36 18 10
36 25 10
36 29 10
36 34 7
37 0 8
37 1 7
37 3 2
37 4 3
37 7 7
37 9 6
37 10 2
37 13 4
37 19 6
37 22 2
37 23 5
37 25 1
37 26 7
37 27 9
37 28 7
37 31 2
37 34 8
37 35 9
37 36 3
38 1 7
38 3 5
38 5 8
38 8 7
38 9 9
38 11 8
38 12 4
38 17 5
38 19 7
38 20 1
38 23 10
38 24 1
38 25 7
38 29 8
38 31 1
38 33 8
38 34 3
38 35 3
38 36 1
38 37 4
39 0 9
39 7 9
39 8 3
39 9 2
39 10 2
39 11 9
39 12 8
39 15 1
39 16 4
39 17 3
39 22 2
39 25 10
39 26 1
39 30 4
39 38 1
